1 383
4 779
4 930
8 1095
1 150
2 533
7 647
5 932
2 78
7 236
4 572
8 832
2 0
5 65
6 316
6 472
1 0
7 128
6 214
8 299
4 11
4 175
5 342
7 475
2 616
3 959
7 1103
8 1419
3 168
5 486
5 767
7 934
3 0
4 339
7 580
8 647
3 442
6 711
6 955
8 1252
2 788
4 1093
7 1337
6 1410
2 163
3 714
5 1072
5 1233
